Input: ticf-13crafc.prec25.dzn
============================================================
Total Runtime: 2.1766 seconds
Input parsing: 0.0005 seconds
Constraint building: 0.5362 seconds
MaxSAT solving: 1.2709 seconds
============================================================

Total variables: 174986
Total clauses: 377444
MaxSAT found with cost: 0
NO SOLUTION FOUND
